# Objective value = 37.0
xobj 37.0
x0_r1 -0.0
x1_r1 0.0
x2_r1 0.0
x3_r1 -0.0
y0_r1 -0.0
y1_r1 -0.0
y2_r1 -0.0
y3_r1 0.0
SH0_r1 -0.0
SL0_r1 -0.0
x4_r1 0.0
x5_r1 -0.0
x6_r1 0.0
x7_r1 -0.0
y4_r1 -0.0
y5_r1 -0.0
y6_r1 -0.0
y7_r1 0.0
SH1_r1 -0.0
SL1_r1 -0.0
x8_r1 -0.0
x9_r1 -0.0
x10_r1 3.144186300207963e-18
x11_r1 -0.0
y8_r1 -5.030698080332741e-16
y9_r1 -0.0
y10_r1 -9.324138683375338e-18
y11_r1 -1.2576745200831851e-16
SH2_r1 -0.0
SL2_r1 -0.0
x12_r1 0.0
x13_r1 -0.0
x14_r1 -0.0
x15_r1 -0.0
y12_r1 -0.0
y13_r1 0.0
y14_r1 -0.0
y15_r1 -0.0
SH3_r1 -0.0
SL3_r1 -0.0
x16_r1 0.0
x17_r1 -0.0
x18_r1 0.0
x19_r1 -0.0
y16_r1 0.0
y17_r1 -0.0
y18_r1 -0.0
y19_r1 0.0
SH4_r1 0.0
SL4_r1 -0.0
x20_r1 -0.0
x21_r1 -0.0
x22_r1 -0.0
x23_r1 -0.0
y20_r1 0.0
y21_r1 -0.0
y22_r1 0.0
y23_r1 -6.201636426617085e-17
SH5_r1 -0.0
SL5_r1 -0.0
x24_r1 0.0
x25_r1 -0.0
x26_r1 -0.0
x27_r1 -0.0
y24_r1 -0.0
y25_r1 -0.0
y26_r1 -0.0
y27_r1 -2.5370330836160804e-17
SH6_r1 0.0
SL6_r1 -0.0
x28_r1 -0.0
x29_r1 -0.0
x30_r1 -0.0
x31_r1 -0.0
y28_r1 -0.0
y29_r1 -0.0
y30_r1 -0.0
y31_r1 4.336808689942018e-17
SH7_r1 0.0
SL7_r1 -0.0
x32_r1 -0.0
x33_r1 -0.0
x34_r1 0.0
x35_r1 -0.0
y32_r1 -0.0
y33_r1 -0.0
y34_r1 -0.0
y35_r1 -0.0
SH8_r1 -0.0
SL8_r1 -0.0
x36_r1 -0.0
x37_r1 0.0
x38_r1 0.0
x39_r1 -0.0
y36_r1 -0.0
y37_r1 0.0
y38_r1 -0.0
y39_r1 0.0
SH9_r1 0.0
SL9_r1 -0.0
x40_r1 -0.0
x41_r1 -0.0
x42_r1 -0.0
x43_r1 -0.0
y40_r1 -0.0
y41_r1 -0.0
y42_r1 -0.0
y43_r1 -0.0
SH10_r1 -0.0
SL10_r1 -0.0
x44_r1 -0.0
x45_r1 -0.0
x46_r1 -0.0
x47_r1 -0.0
y44_r1 -0.0
y45_r1 -0.0
y46_r1 -0.0
y47_r1 -0.0
SH11_r1 0.0
SL11_r1 -0.0
x48_r1 1.0
x49_r1 1.0
x50_r1 1.0
x51_r1 1.0
y48_r1 -0.0
y49_r1 -0.0
y50_r1 -0.0
y51_r1 1.0000000000000122
SH12_r1 1.0000000000000122
SL12_r1 -0.0
x52_r1 0.0
x53_r1 0.0
x54_r1 0.0
x55_r1 0.0
y52_r1 -0.0
y53_r1 -0.0
y54_r1 -0.0
y55_r1 0.0
SH13_r1 -0.0
SL13_r1 -0.0
x56_r1 -5.717648576819556e-15
x57_r1 -1.1032841307212493e-15
x58_r1 -1.2323475573339238e-14
x59_r1 -1.0880185641326534e-14
y56_r1 -0.0
y57_r1 -0.0
y58_r1 -0.0
y59_r1 -1.2323475573339238e-14
SH14_r1 -1.2323475573339238e-14
SL14_r1 -0.0
x60_r1 1.0
x61_r1 1.0
x62_r1 1.0
x63_r1 1.0
y60_r1 -0.0
y61_r1 -0.0
y62_r1 -0.0
y63_r1 1.0
SH15_r1 1.0
SL15_r1 -0.0
y0_r2 -0.0
y1_r2 -0.0
y2_r2 -4.163336342344337e-16
y3_r2 -0.0
SH0_r2 -0.0
SL0_r2 -0.0
y4_r2 -0.0
y5_r2 -0.0
y6_r2 -0.0
y7_r2 -0.0
SH1_r2 0.0
SL1_r2 -0.0
y8_r2 -0.0
y9_r2 -0.0
y10_r2 -0.0
y11_r2 -0.0
SH2_r2 -0.0
SL2_r2 -0.0
y12_r2 -0.0
y13_r2 -0.0
y14_r2 -0.0
y15_r2 -0.0
SH3_r2 0.0
SL3_r2 -0.0
y16_r2 -0.0
y17_r2 0.0
y18_r2 -4.145989107584569e-16
y19_r2 -0.0
SH4_r2 -0.0
SL4_r2 -0.0
y20_r2 -0.0
y21_r2 0.0
y22_r2 -0.0
y23_r2 -0.0
SH5_r2 -0.0
SL5_r2 -0.0
y24_r2 -0.0
y25_r2 0.0
y26_r2 -0.0
y27_r2 -0.0
SH6_r2 -0.0
SL6_r2 -0.0
y28_r2 0.0
y29_r2 0.0
y30_r2 -0.0
y31_r2 -0.0
SH7_r2 -0.0
SL7_r2 -0.0
y32_r2 -0.0
y33_r2 -3.5778671692021646e-17
y34_r2 -7.426784881525705e-18
y35_r2 -0.0
SH8_r2 -9.75781955236954e-18
SL8_r2 -0.0
y36_r2 -0.0
y37_r2 -0.0
y38_r2 0.0
y39_r2 -0.0
SH9_r2 0.0
SL9_r2 -0.0
y40_r2 3.5388358909926865e-16
y41_r2 3.5561831257524545e-17
y42_r2 -0.0
y43_r2 -0.0
SH10_r2 3.5778671692021646e-17
SL10_r2 -0.0
y44_r2 -0.0
y45_r2 0.0
y46_r2 -0.0
y47_r2 -0.0
SH11_r2 -0.0
SL11_r2 -0.0
y48_r2 -1.3444106938820255e-16
y49_r2 -2.6020852139652106e-16
y50_r2 -1.3444106938820255e-16
y51_r2 -1.1600963245594897e-17
SH12_r2 -1.3444106938820255e-16
SL12_r2 -0.0
y52_r2 -1.0755285551056204e-16
y53_r2 -1.7694179454963432e-16
y54_r2 -1.457167719820518e-16
y55_r2 -0.0
SH13_r2 -8.370040771588094e-17
SL13_r2 -0.0
y56_r2 0.0
y57_r2 -2.3765711620882257e-16
y58_r2 -8.543513119185775e-17
y59_r2 -8.543513119185775e-17
SH14_r2 -8.543513119185775e-17
SL14_r2 -0.0
y60_r2 9.367506770274758e-17
y61_r2 1.0
y62_r2 -6.678685382510707e-17
y63_r2 -3.187554387107383e-17
SH15_r2 1.0
SL15_r2 -1.2490009027033011e-14
y0_r3 -0.0
y1_r3 -0.0
y2_r3 -0.0
y3_r3 -0.0
SH0_r3 -0.0
SL0_r3 -0.0
y4_r3 -0.0
y5_r3 -0.0
y6_r3 -7.563394355258879e-16
y7_r3 -0.0
SH1_r3 -0.0
SL1_r3 -0.0
y8_r3 -0.0
y9_r3 7.008282842946301e-16
y10_r3 1.8735013540549517e-16
y11_r3 -0.0
SH2_r3 3.4867941867133823e-16
SL2_r3 -0.0
y12_r3 0.0
y13_r3 4.3021142204224816e-16
y14_r3 -2.220446049250313e-16
y15_r3 -0.0
SH3_r3 9.454242944073599e-17
SL3_r3 -0.0
y16_r3 -0.0
y17_r3 -0.0
y18_r3 -0.0
y19_r3 -0.0
SH4_r3 -0.0
SL4_r3 -0.0
y20_r3 0.0
y21_r3 -0.0
y22_r3 0.0
y23_r3 0.0
SH5_r3 -0.0
SL5_r3 -0.0
y24_r3 -1.4203048459560108e-17
y25_r3 0.0
y26_r3 -0.0
y27_r3 -1.4203048459560108e-17
SH6_r3 -1.4203048459560108e-17
SL6_r3 -0.0
y28_r3 1.0
y29_r3 -0.0
y30_r3 -0.0
y31_r3 1.0
SH7_r3 1.0
SL7_r3 -0.0
y32_r3 -0.0
y33_r3 -0.0
y34_r3 -0.0
y35_r3 -0.0
SH8_r3 0.0
SL8_r3 -0.0
y36_r3 -0.0
y37_r3 -4.2717565595928875e-17
y38_r3 -1.240327285323417e-16
y39_r3 -1.304512053934559e-15
SH9_r3 -1.231653667943533e-16
SL9_r3 -0.0
y40_r3 -0.0
y41_r3 -0.0
y42_r3 1.3552527156068805e-17
y43_r3 4.0657581468206416e-19
SH10_r3 2.087089182034596e-18
SL10_r3 -0.0
y44_r3 4.996003610813204e-16
y45_r3 -1.478851763270228e-16
y46_r3 -2.0903417885520525e-16
y47_r3 1.8800065670898647e-16
SH11_r3 -6.678685382510707e-17
SL11_r3 -0.0
y48_r3 2.47198095326695e-17
y49_r3 1.691355389077387e-17
y50_r3 0.0
y51_r3 -0.0
SH12_r3 -0.0
SL12_r3 -0.0
y52_r3 -0.0
y53_r3 -0.0
y54_r3 0.0
y55_r3 -0.0
SH13_r3 -0.0
SL13_r3 -0.0
y56_r3 0.0
y57_r3 -0.0
y58_r3 0.0
y59_r3 -0.0
SH14_r3 -0.0
SL14_r3 -0.0
y60_r3 -0.0
y61_r3 -0.0
y62_r3 0.0
y63_r3 -0.0
SH15_r3 -2.5587171270657905e-17
SL15_r3 -0.0
y0_r4 -0.0
y1_r4 -0.0
y2_r4 -0.0
y3_r4 0.0
SH0_r4 0.0
SL0_r4 -0.0
y4_r4 1.0000000000000022
y5_r4 1.7520707107365752e-16
y6_r4 -0.0
y7_r4 0.9999999999999983
SH1_r4 1.0
SL1_r4 1.6514567491299204e-15
y8_r4 1.9984014443252818e-15
y9_r4 -0.0
y10_r4 -0.0
y11_r4 -0.0
SH2_r4 5.030698080332741e-16
SL2_r4 -0.0
y12_r4 -2.5153490401663703e-17
y13_r4 -7.28583859910259e-17
y14_r4 -0.0
y15_r4 -0.0
SH3_r4 -2.862293735361732e-17
SL3_r4 -0.0
y16_r4 -0.0
y17_r4 4.100452616340178e-16
y18_r4 -1.0191500421363742e-16
y19_r4 0.0
SH4_r4 2.1510571102112408e-16
SL4_r4 -0.0
y20_r4 -0.0
y21_r4 -0.0
y22_r4 -0.0
y23_r4 -0.0
SH5_r4 -0.0
SL5_r4 -0.0
y24_r4 -0.0
y25_r4 -3.7838655819744105e-17
y26_r4 -5.616167253474913e-17
y27_r4 -0.0
SH6_r4 -5.095750210681871e-17
SL6_r4 -0.0
y28_r4 -0.0
y29_r4 2.336455681706262e-17
y30_r4 -4.597017211338539e-17
y31_r4 -0.0
SH7_r4 0.0
SL7_r4 -0.0
y32_r4 -1.797173521111972e-15
y33_r4 -4.933119884809045e-17
y34_r4 -0.0
y35_r4 0.0
SH8_r4 -5.967448757360216e-16
SL8_r4 -0.0
y36_r4 0.0
y37_r4 0.0
y38_r4 0.0
y39_r4 0.0
SH9_r4 0.0
SL9_r4 -0.0
y40_r4 -4.388850394221322e-16
y41_r4 -0.0
y42_r4 0.0
y43_r4 0.0
SH10_r4 -2.0729945537922845e-16
SL10_r4 -0.0
y44_r4 0.0
y45_r4 -0.0
y46_r4 -0.0
y47_r4 -0.0
SH11_r4 -0.0
SL11_r4 -0.0
y48_r4 -0.0
y49_r4 0.0
y50_r4 -0.0
y51_r4 0.0
SH12_r4 -0.0
SL12_r4 -0.0
y52_r4 1.0000000000000033
y53_r4 0.0
y54_r4 -3.1780134079895106e-15
y55_r4 1.0
SH13_r4 1.0
SL13_r4 -0.0
y56_r4 -8.257283745649602e-16
y57_r4 -0.0
y58_r4 -2.5951463200613034e-15
y59_r4 -8.534839501805891e-16
SH14_r4 -8.257283745649602e-16
SL14_r4 -0.0
y60_r4 -0.0
y61_r4 -0.0
y62_r4 -0.0
y63_r4 0.0
SH15_r4 -0.0
SL15_r4 -0.0
y0_r5 -1.734723475976807e-16
y1_r5 1.0000000000000022
y2_r5 -0.0
y3_r5 1.0000000000000007
SH0_r5 1.0000000000000022
SL0_r5 1.8388068845354155e-15
y4_r5 -0.0
y5_r5 -0.0
y6_r5 -0.0
y7_r5 -0.0
SH1_r5 -0.0
SL1_r5 -0.0
y8_r5 -1.880440247958859e-15
y9_r5 -2.2620794126737565e-15
y10_r5 -0.0
y11_r5 -3.774758283725532e-15
SH2_r5 -2.2620794126737565e-15
SL2_r5 -0.0
y12_r5 2.699229728619912e-15
y13_r5 1.0000000000000033
y14_r5 -0.0
y15_r5 1.0000000000000007
SH3_r5 1.0000000000000033
SL3_r5 2.456368441983159e-15
y16_r5 0.0
y17_r5 -3.2959746043559335e-17
y18_r5 -0.0
y19_r5 2.5326962749261384e-16
SH4_r5 1.8908485888147197e-16
SL4_r5 -0.0
y20_r5 0.0
y21_r5 -3.228754069661832e-16
y22_r5 -0.0
y23_r5 -0.0
SH5_r5 1.7276761618556513e-16
SL5_r5 -0.0
y24_r5 0.0
y25_r5 -8.916478666520788e-16
y26_r5 -0.0
y27_r5 1.196959198423997e-16
SH6_r5 -3.2959746043559335e-16
SL6_r5 -0.0
y28_r5 -0.0
y29_r5 -0.0
y30_r5 -0.0
y31_r5 -0.0
SH7_r5 0.0
SL7_r5 -0.0
y32_r5 0.0
y33_r5 0.0
y34_r5 0.0
y35_r5 -0.0
SH8_r5 0.0
SL8_r5 -0.0
y36_r5 -0.0
y37_r5 -8.239936510889834e-17
y38_r5 0.0
y39_r5 0.0
SH9_r5 -5.117434254131581e-17
SL9_r5 -0.0
y40_r5 -0.0
y41_r5 0.0
y42_r5 -0.0
y43_r5 -0.0
SH10_r5 -0.0
SL10_r5 -0.0
y44_r5 -2.130240428499519e-15
y45_r5 1.7607443281164592e-16
y46_r5 -0.0
y47_r5 -0.0
SH11_r5 -9.194034422677078e-16
SL11_r5 -9.194034422677078e-16
y48_r5 -1.7069679003611782e-15
y49_r5 1.0000000000000009
y50_r5 -0.0
y51_r5 1.0000000000000027
SH12_r5 0.9999999999999983
SL12_r5 -4.468647674116255e-15
y52_r5 0.0
y53_r5 0.0
y54_r5 0.0
y55_r5 0.0
SH13_r5 0.0
SL13_r5 -0.0
y56_r5 0.0
y57_r5 0.0
y58_r5 -0.0
y59_r5 0.0
SH14_r5 0.0
SL14_r5 -0.0
y60_r5 -1.6514567491299204e-15
y61_r5 1.0000000000000009
y62_r5 0.0
y63_r5 1.0000000000000027
SH15_r5 1.0
SL15_r5 -2.4424906541753444e-15
y0_r6 -0.0
y1_r6 4.0809369772354387e-16
y2_r6 -0.0
y3_r6 -0.0
SH0_r6 4.0809369772354387e-16
SL0_r6 -0.0
y4_r6 -0.0
y5_r6 0.0
y6_r6 -0.0
y7_r6 -0.0
SH1_r6 0.0
SL1_r6 -0.0
y8_r6 -0.0
y9_r6 -2.0747292772682613e-15
y10_r6 -0.0
y11_r6 -0.0
SH2_r6 -1.2628786905111156e-15
SL2_r6 -0.0
y12_r6 -0.0
y13_r6 -1.6514567491299204e-15
y14_r6 -0.0
y15_r6 -0.0
SH3_r6 -1.7069679003611782e-15
SL3_r6 -0.0
y16_r6 -2.095545958979983e-15
y17_r6 1.000000000000002
y18_r6 -1.1058862159352145e-17
y19_r6 0.0
SH4_r6 1.0
SL4_r6 4.501607420159814e-16
y20_r6 -1.3114509478384662e-15
y21_r6 -2.0209528495129803e-16
y22_r6 -0.0
y23_r6 -0.0
SH5_r6 -3.903127820947816e-16
SL5_r6 -0.0
y24_r6 6.765421556309548e-17
y25_r6 8.890457814381136e-17
y26_r6 -1.680513367352532e-17
y27_r6 -0.0
SH6_r6 8.890457814381136e-17
SL6_r6 -0.0
y28_r6 -1.3114509478384662e-15
y29_r6 1.000000000000002
y30_r6 -0.0
y31_r6 -0.0
SH7_r6 1.0000000000000009
SL7_r6 -1.2004286453759505e-15
y32_r6 -0.0
y33_r6 -0.0
y34_r6 -0.0
y35_r6 -0.0
SH8_r6 -0.0
SL8_r6 -0.0
y36_r6 -0.0
y37_r6 0.0
y38_r6 -0.0
y39_r6 -0.0
SH9_r6 -0.0
SL9_r6 -0.0
y40_r6 -0.0
y41_r6 0.0
y42_r6 -0.0
y43_r6 -0.0
SH10_r6 -0.0
SL10_r6 -0.0
y44_r6 -0.0
y45_r6 0.0
y46_r6 -0.0
y47_r6 -0.0
SH11_r6 -0.0
SL11_r6 -0.0
y48_r6 3.668940151690947e-16
y49_r6 1.0000000000000022
y50_r6 0.0
y51_r6 7.41594285980085e-17
SH12_r6 1.0000000000000007
SL12_r6 -2.0539125955565396e-15
y52_r6 3.668940151690947e-16
y53_r6 2.723515857283587e-16
y54_r6 0.0
y55_r6 7.41594285980085e-17
SH13_r6 7.112366251504909e-17
SL13_r6 -0.0
y56_r6 0.0
y57_r6 0.0
y58_r6 0.0
y59_r6 -0.0
SH14_r6 -0.0
SL14_r6 -0.0
y60_r6 3.668940151690947e-16
y61_r6 1.0000000000000022
y62_r6 0.0
y63_r6 7.41594285980085e-17
SH15_r6 1.0000000000000027
SL15_r6 3.86843335142828e-16
y0_r7 -0.0
y1_r7 -0.0
y2_r7 -0.0
y3_r7 -0.0
SH0_r7 -0.0
SL0_r7 -0.0
y4_r7 0.0
y5_r7 0.0
y6_r7 -0.0
y7_r7 0.0
SH1_r7 -1.3114509478384662e-15
SL1_r7 -0.0
y8_r7 -0.0
y9_r7 -0.0
y10_r7 -0.0
y11_r7 -0.0
SH2_r7 -0.0
SL2_r7 -0.0
y12_r7 -0.0
y13_r7 0.0
y14_r7 -0.0
y15_r7 -0.0
SH3_r7 3.668940151690947e-16
SL3_r7 -0.0
y16_r7 0.0
y17_r7 -1.6514567491299204e-15
y18_r7 0.0
y19_r7 0.0
SH4_r7 -1.7069679003611782e-15
SL4_r7 -0.0
y20_r7 1.0928757898653885e-16
y21_r7 1.000000000000002
y22_r7 0.0
y23_r7 0.0
SH5_r7 1.000000000000002
SL5_r7 -0.0
y24_r7 0.0
y25_r7 0.0
y26_r7 -0.0
y27_r7 -0.0
SH6_r7 -0.0
SL6_r7 -0.0
y28_r7 2.723515857283587e-16
y29_r7 1.000000000000002
y30_r7 0.0
y31_r7 -0.0
SH7_r7 1.0000000000000024
SL7_r7 -0.0
y32_r7 -0.0
y33_r7 -0.0
y34_r7 -0.0
y35_r7 -0.0
SH8_r7 -0.0
SL8_r7 -0.0
y36_r7 0.0
y37_r7 -0.0
y38_r7 -0.0
y39_r7 -0.0
SH9_r7 -1.1167282376600696e-17
SL9_r7 -0.0
y40_r7 -0.0
y41_r7 -0.0
y42_r7 -0.0
y43_r7 0.0
SH10_r7 -0.0
SL10_r7 -0.0
y44_r7 -0.0
y45_r7 0.0
y46_r7 -0.0
y47_r7 -0.0
SH11_r7 -0.0
SL11_r7 -0.0
y48_r7 0.0
y49_r7 -0.0
y50_r7 -0.0
y51_r7 -0.0
SH12_r7 -0.0
SL12_r7 -0.0
y52_r7 -0.0
y53_r7 -0.0
y54_r7 0.0
y55_r7 0.0
SH13_r7 -0.0
SL13_r7 -0.0
y56_r7 -0.0
y57_r7 -0.0
y58_r7 -0.0
y59_r7 -0.0
SH14_r7 -0.0
SL14_r7 -0.0
y60_r7 -0.0
y61_r7 0.0
y62_r7 -0.0
y63_r7 0.0
SH15_r7 7.41594285980085e-17
SL15_r7 -0.0
y0_r8 -0.0
y1_r8 -0.0
y2_r8 -0.0
y3_r8 -0.0
SH0_r8 0.0
SL0_r8 -0.0
y4_r8 0.0
y5_r8 0.0
y6_r8 6.635317295611287e-17
y7_r8 4.185020385794047e-17
SH1_r8 1.0928757898653885e-16
SL1_r8 -0.0
y8_r8 0.0
y9_r8 0.0
y10_r8 -0.0
y11_r8 -0.0
SH2_r8 -0.0
SL2_r8 -0.0
y12_r8 -0.0
y13_r8 -0.0
y14_r8 -0.0
y15_r8 -0.0
SH3_r8 0.0
SL3_r8 0.0
y16_r8 0.0
y17_r8 -0.0
y18_r8 -0.0
y19_r8 -0.0
SH4_r8 0.0
SL4_r8 -0.0
y20_r8 -3.885780586188048e-15
y21_r8 1.0000000000000036
y22_r8 0.0
y23_r8 -0.0
SH5_r8 1.000000000000002
SL5_r8 1.0000000000000075
y24_r8 0.0
y25_r8 -0.0
y26_r8 -0.0
y27_r8 -0.0
SH6_r8 -0.0
SL6_r8 -0.0
y28_r8 -0.0
y29_r8 -0.0
y30_r8 -0.0
y31_r8 -0.0
SH7_r8 -0.0
SL7_r8 -0.0
y32_r8 0.0
y33_r8 0.0
y34_r8 -0.0
y35_r8 -0.0
SH8_r8 0.0
SL8_r8 0.0
y36_r8 0.0
y37_r8 -0.0
y38_r8 0.0
y39_r8 -0.0
SH9_r8 -0.0
SL9_r8 -0.0
y40_r8 -0.0
y41_r8 -0.0
y42_r8 -0.0
y43_r8 -0.0
SH10_r8 0.0
SL10_r8 -0.0
y44_r8 -0.0
y45_r8 -0.0
y46_r8 -0.0
y47_r8 -0.0
SH11_r8 -0.0
SL11_r8 -0.0
y48_r8 -0.0
y49_r8 0.0
y50_r8 -0.0
y51_r8 -0.0
SH12_r8 0.0
SL12_r8 -0.0
y52_r8 -0.0
y53_r8 0.0
y54_r8 0.0
y55_r8 -0.0
SH13_r8 -0.0
SL13_r8 -0.0
y56_r8 -0.0
y57_r8 0.0
y58_r8 -0.0
y59_r8 -0.0
SH14_r8 -0.0
SL14_r8 -0.0
y60_r8 0.0
y61_r8 -0.0
y62_r8 -0.0
y63_r8 -0.0
SH15_r8 -0.0
SL15_r8 -0.0
y0_r9 -0.0
y1_r9 0.0
y2_r9 0.0
y3_r9 -0.0
SH0_r9 -0.0
SL0_r9 -0.0
y4_r9 -0.0
y5_r9 -3.774758283725532e-15
y6_r9 -0.0
y7_r9 -3.774758283725532e-15
SH1_r9 -3.885780586188048e-15
SL1_r9 -0.0
y8_r9 -0.0
y9_r9 -0.0
y10_r9 -0.0
y11_r9 -0.0
SH2_r9 0.0
SL2_r9 -0.0
y12_r9 -0.0
y13_r9 0.0
y14_r9 -0.0
y15_r9 -0.0
SH3_r9 -0.0
SL3_r9 -0.0
y16_r9 -0.0
y17_r9 0.0
y18_r9 -0.0
y19_r9 -0.0
SH4_r9 -0.0
SL4_r9 -0.0
y20_r9 -0.0
y21_r9 1.0000000000000036
y22_r9 -0.0
y23_r9 1.0000000000000036
SH5_r9 1.0000000000000036
SL5_r9 -0.0
y24_r9 0.0
y25_r9 -0.0
y26_r9 -0.0
y27_r9 -0.0
SH6_r9 0.0
SL6_r9 -0.0
y28_r9 -0.0
y29_r9 -0.0
y30_r9 -0.0
y31_r9 -0.0
SH7_r9 -0.0
SL7_r9 -0.0
y32_r9 2.2876665839444144e-17
y33_r9 1.0538445116559103e-16
y34_r9 9.020562075079397e-17
y35_r9 2.0383000842727483e-17
SH8_r9 6.635317295611287e-17
SL8_r9 -0.0
y36_r9 0.0
y37_r9 0.0
y38_r9 -0.0
y39_r9 -0.0
SH9_r9 0.0
SL9_r9 -0.0
y40_r9 -0.0
y41_r9 -0.0
y42_r9 -0.0
y43_r9 -0.0
SH10_r9 0.0
SL10_r9 -0.0
y44_r9 -0.0
y45_r9 0.0
y46_r9 -0.0
y47_r9 -0.0
SH11_r9 -0.0
SL11_r9 -0.0
y48_r9 3.729655473350135e-17
y49_r9 -0.0
y50_r9 -0.0
y51_r9 -0.0
SH12_r9 4.0115480381963664e-17
SL12_r9 -0.0
y52_r9 0.0
y53_r9 0.0
y54_r9 -0.0
y55_r9 0.0
SH13_r9 -0.0
SL13_r9 -0.0
y56_r9 -0.0
y57_r9 0.0
y58_r9 -0.0
y59_r9 -0.0
SH14_r9 -0.0
SL14_r9 -0.0
y60_r9 0.0
y61_r9 0.0
y62_r9 -0.0
y63_r9 -0.0
SH15_r9 -0.0
SL15_r9 -0.0
